data/instances/vrp_files/train_53.vrp
NAME : 53
COMMENT : Generated instance No. 53
TYPE : CVRP
DIMENSION : 21
EDGE_WEIGHT_TYPE : EUC_2D
CAPACITY : 30
NODE_COORD_SECTION
 1 434 258
 2 623 648
 3 267 15
 4 965 250
 5 676 706
 6 610 312
 7 271 597
 8 866 946
 9 105 154
 10 944 736
 11 882 202
 12 587 701
 13 680 408
 14 15 582
 15 253 450
 16 957 399
 17 839 188
 18 672 977
 19 101 8
 20 433 92
 21 748 914
DEMAND_SECTION
1 0
2 9
3 10
4 3
5 8
6 1
7 9
8 9
9 10
10 2
11 4
12 8
13 7
14 1
15 5
16 7
17 4
18 1
19 9
20 5
21 2
DEPOT_SECTION
 1
 -1
EOF